--- Job feedOptimizer.gms Start 06/12/20 20:28:29 31.1.0 r55b6ce3 WEX-WEI x86 64bit/MS Windows
--- Applying:
    E:\31.1\gmsprmNT.txt
--- GAMS Parameters defined
    Input C:\Users\hasee\Documents\GitHub\GAMS-MIRO\feedopt\feedOptimizer.gms
    ScrDir C:\Users\hasee\Documents\GitHub\GAMS-MIRO\feedopt\225a\
    SysDir E:\31.1\
    CurDir C:\Users\hasee\Documents\GitHub\GAMS-MIRO\feedopt\
    LogOption 3
    Trace C:\Users\hasee\Documents\GitHub\GAMS-MIRO\feedopt\_sys_trace_feedoptimizer.trc
    InputDir1 C:\Users\hasee\Documents\GitHub\GAMS-MIRO\feedopt\
    TraceOpt 3
    ExecMode 0
    LstTitleLeftAligned 1
    IDCGDXInput _miro_gdxin_.gdx
    IDCGDXOutput _miro_gdxout_.gdx
GAMS 31.1.0   Copyright (C) 1987-2020 GAMS Development. All rights reserved
*** License has expired 3 days ago
Licensee: CS526 Advanced Linear Programming              G200210/0001AS-GEN
          Course License UW-Madison, Prof Ferris, Spring 2020        DCE515
          E:\31.1\gamslice.txt
          Evaluation license: Not for commercial or production use
--- Starting compilation
--- feedOptimizer.gms(26) 2 Mb
--- GDXin=C:\Users\hasee\Documents\GitHub\GAMS-MIRO\feedopt\_miro_gdxin_.gdx
--- feedOptimizer.gms(35) 3 Mb
--- GDXin=C:\Users\hasee\Documents\GitHub\GAMS-MIRO\feedopt\_miro_gdxin_.gdx
--- feedOptimizer.gms(237) 3 Mb
--- Starting execution: elapsed 0:00:00.012
--- feedOptimizer.gms(197) 4 Mb
--- Generating MIP model feedOptimizer
--- feedOptimizer.gms(199) 8 Mb
---   13,830 rows  7,225 columns  45,649 non-zeroes
---   7,032 discrete-columns
--- Executing CPLEX: elapsed 0:00:00.136

IBM ILOG CPLEX   31.1.0 r55b6ce3 Released May 01, 2020 WEI x86 64bit/MS Window
--- GAMS/Cplex licensed for continuous and discrete problems.
Cplex 12.10.0.0

Reading data...
Starting Cplex...
Space for names approximately 0.58 Mb
Use option 'names no' to turn use of names off
Version identifier: 12.10.0.0 | 2019-11-26 | 843d4de2ae
CPXPARAM_Advance                                 0
CPXPARAM_Threads                                 1
CPXPARAM_Parallel                                1
CPXPARAM_MIP_Display                             4
CPXPARAM_Simplex_Limits_Iterations               2000000000
CPXPARAM_TimeLimit                               30
CPXPARAM_Tune_TimeLimit                          6
CPXPARAM_MIP_Tolerances_AbsMIPGap                0
CPXPARAM_MIP_Tolerances_MIPGap                   0.10000000000000001
CPXPARAM_WorkDir                                 "C:\Users\hasee\Documents\GitHub\GAMS-MIRO\feedopt\225a\"
Found incumbent of value 0.000000 after 0.00 sec. (0.26 ticks)
Tried aggregator 1 time.
MIP Presolve eliminated 7137 rows and 2513 columns.
MIP Presolve modified 1413 coefficients.
Reduced MIP has 6693 rows, 4712 columns, and 26568 nonzeros.
Reduced MIP has 4536 binaries, 0 generals, 0 SOSs, and 0 indicators.
Presolve time = 0.03 sec. (22.27 ticks)
Probing time = 0.00 sec. (2.27 ticks)
Tried aggregator 1 time.
Detecting symmetries...
MIP Presolve eliminated 100 rows and 48 columns.
MIP Presolve modified 1280 coefficients.
Reduced MIP has 6593 rows, 4664 columns, and 26196 nonzeros.
Reduced MIP has 4488 binaries, 0 generals, 0 SOSs, and 0 indicators.
Presolve time = 0.03 sec. (22.18 ticks)
Probing time = 0.00 sec. (2.25 ticks)
Clique table members: 96.
MIP emphasis: balance optimality and feasibility.
MIP search method: dynamic search.
Parallel mode: none, using 1 thread.
Tried aggregator 1 time.
LP Presolve eliminated 128 rows and 144 columns.
Reduced LP has 6465 rows, 4520 columns, and 25688 nonzeros.
Presolve time = 0.02 sec. (4.29 ticks)

Iteration log . . .
Iteration:     1   Dual objective     =         84795.292891
Iteration:   123   Dual objective     =         47593.846714
Iteration:   394   Dual objective     =         46642.337392
Perturbation started.
Iteration:   404   Dual objective     =         46642.337392
Iteration:   628   Dual objective     =         46642.337297
Iteration:   849   Dual objective     =         46642.337194
Iteration:  1078   Dual objective     =         46642.337087
Iteration:  1290   Dual objective     =         46642.336993
Iteration:  1511   Dual objective     =         46642.336891
Iteration:  1733   Dual objective     =         46642.336785
Iteration:  1903   Dual objective     =         46642.336710
Iteration:  2070   Dual objective     =         46642.336633
Iteration:  2282   Dual objective     =         46642.336536
Iteration:  2484   Dual objective     =         46642.336447
Iteration:  2645   Dual objective     =         46642.336375
Iteration:  2846   Dual objective     =         46642.336290
Iteration:  3042   Dual objective     =         46642.336209
Iteration:  3211   Dual objective     =         46642.336132
Iteration:  3439   Dual objective     =         46642.336086
Iteration:  3712   Dual objective     =         46642.336071
Removing perturbation.
Initializing dual steep norms . . .

Iteration log . . .
Iteration:     1   Dual objective     =         46642.337392
Root relaxation solution time = 0.36 sec. (298.86 ticks)

        Nodes                                         Cuts/
   Node  Left     Objective  IInf  Best Integer    Best Bound    ItCnt     Gap

*     0+    0                            0.0000    85593.8614              --- 
Found incumbent of value 0.000000 after 0.44 sec. (357.77 ticks)
      0     0    46642.3374   810        0.0000    46642.3374     3966     --- 
      0     0    46642.3374   810        0.0000      Cuts: 58     4105     --- 
      0     0    46642.3374   810        0.0000     Cuts: 507     4906     --- 
      0     0    46642.3374   810        0.0000      Cuts: 70     5007     --- 
*     0+    0                        36310.6739    46642.3374            28.45%
Found incumbent of value 36310.673917 after 0.91 sec. (727.38 ticks)
      0     0    46642.3374   810    36310.6739     Cuts: 217     5402   28.45%
*     0+    0                        38413.0272    46642.3374            21.42%
Found incumbent of value 38413.027159 after 1.02 sec. (779.48 ticks)
*     0+    0                        38858.3396    46642.3374            20.03%
Found incumbent of value 38858.339603 after 1.03 sec. (788.69 ticks)
*     0+    0                        38868.1429    46642.3374            20.00%
Found incumbent of value 38868.142901 after 1.05 sec. (797.26 ticks)
*     0+    0                        39231.5326    46642.3374            18.89%
Found incumbent of value 39231.532638 after 1.08 sec. (809.01 ticks)
      0     0        cutoff          39231.5326    46642.3374     5402   18.89%
*     0+    0                        46642.3374    46642.3374             0.00%
Found incumbent of value 46642.337392 after 1.41 sec. (1093.29 ticks)
      0     0        cutoff          46642.3374    46642.3374     5402    0.00%
      0     0        cutoff          46642.3374    46642.3374     5402    0.00%
Elapsed time = 1.42 sec. (1095.69 ticks, tree = 0.01 MB, solutions = 6)

Implied bound cuts applied:  1
Flow cuts applied:  42
Mixed integer rounding cuts applied:  69
Gomory fractional cuts applied:  2

Root node processing (before b&c):
  Real time             =    1.42 sec. (1096.33 ticks)
Sequential b&c:
  Real time             =    0.00 sec. (0.00 ticks)
                          ------------
Total (root+branch&cut) =    1.42 sec. (1096.33 ticks)
MIP status(101): integer optimal solution
Cplex Time: 1.42sec (det. 1096.35 ticks)
Fixing integer variables, and solving final LP...
Version identifier: 12.10.0.0 | 2019-11-26 | 843d4de2ae
CPXPARAM_Advance                                 2
CPXPARAM_Threads                                 1
CPXPARAM_Parallel                                1
CPXPARAM_MIP_Display                             4
CPXPARAM_Simplex_Limits_Iterations               2000000000
CPXPARAM_TimeLimit                               30
CPXPARAM_Tune_TimeLimit                          6
CPXPARAM_MIP_Tolerances_AbsMIPGap                0
CPXPARAM_MIP_Tolerances_MIPGap                   0.10000000000000001
CPXPARAM_WorkDir                                 "C:\Users\hasee\Documents\GitHub\GAMS-MIRO\feedopt\225a\"
Tried aggregator 1 time.
LP Presolve eliminated 13830 rows and 7225 columns.
All rows and columns eliminated.
Presolve time = 0.02 sec. (5.99 ticks)
Fixed MIP status(1): optimal
Cplex Time: 0.02sec (det. 11.07 ticks)

Proven optimal solution.

MIP Solution:        46642.337392    (5402 iterations, 0 nodes)
Final Solve:         46642.337392    (0 iterations)

Best possible:       46642.337392
Absolute gap:            0.000000
Relative gap:            0.000000

--- Restarting execution
--- feedOptimizer.gms(199) 3 Mb
--- Reading solution for model feedOptimizer
--- feedOptimizer.gms(235) 5 Mb
--- GDX File C:\Users\hasee\Documents\GitHub\GAMS-MIRO\feedopt\_miro_gdxout_.gdx
*** Status: Normal completion
--- Job feedOptimizer.gms Stop 06/12/20 20:28:31 elapsed 0:00:01.922
